param n := 249;
param c := 3000
param : V : p w :=
   0	 385	 375
   1	 285	 275
   2	 360	 350
   3	 496	 486
   4	 266	 256
   5	 268	 258
   6	 476	 466
   7	 271	 261
   8	 283	 273
   9	 489	 479
  10	 264	 254
  11	 277	 267
  12	 435	 425
  13	 264	 254
  14	 331	 321
  15	 508	 498
  16	 260	 250
  17	 262	 252
  18	 393	 383
  19	 283	 273
  20	 354	 344
  21	 462	 452
  22	 280	 270
  23	 288	 278
  24	 457	 447
  25	 268	 258
  26	 305	 295
  27	 397	 387
  28	 315	 305
  29	 318	 308
  30	 506	 496
  31	 260	 250
  32	 264	 254
  33	 443	 433
  34	 279	 269
  35	 308	 298
  36	 509	 499
  37	 260	 250
  38	 261	 251
  39	 425	 415
  40	 293	 283
  41	 312	 302
  42	 490	 480
  43	 265	 255
  44	 275	 265
  45	 384	 374
  46	 290	 280
  47	 356	 346
  48	 508	 498
  49	 260	 250
  50	 262	 252
  51	 375	 365
  52	 296	 286
  53	 359	 349
  54	 430	 420
  55	 268	 258
  56	 332	 322
  57	 363	 353
  58	 311	 301
  59	 356	 346
  60	 477	 467
  61	 267	 257
  62	 286	 276
  63	 384	 374
  64	 274	 264
  65	 372	 362
  66	 411	 401
  67	 292	 282
  68	 327	 317
  69	 423	 413
  70	 275	 265
  71	 332	 322
  72	 384	 374
  73	 276	 266
  74	 370	 360
  75	 477	 467
  76	 262	 252
  77	 291	 281
  78	 369	 359
  79	 329	 319
  80	 332	 322
  81	 458	 448
  82	 268	 258
  83	 304	 294
  84	 437	 427
  85	 263	 253
  86	 330	 320
  87	 463	 453
  88	 263	 253
  89	 304	 294
  90	 493	 483
  91	 264	 254
  92	 273	 263
  93	 458	 448
  94	 266	 256
  95	 306	 296
  96	 469	 459
  97	 264	 254
  98	 297	 287
  99	 413	 403
 100	 304	 294
 101	 313	 303
 102	 508	 498
 103	 260	 250
 104	 262	 252
 105	 470	 460
 106	 263	 253
 107	 297	 287
 108	 419	 409
 109	 279	 269
 110	 332	 322
 111	 485	 475
 112	 262	 252
 113	 283	 273
 114	 381	 371
 115	 294	 284
 116	 355	 345
 117	 449	 439
 118	 285	 275
 119	 296	 286
 120	 484	 474
 121	 265	 255
 122	 281	 271
 123	 420	 410
 124	 265	 255
 125	 345	 335
 126	 406	 396
 127	 271	 261
 128	 353	 343
 129	 456	 446
 130	 270	 260
 131	 304	 294
 132	 418	 408
 133	 267	 257
 134	 345	 335
 135	 496	 486
 136	 261	 251
 137	 273	 263
 138	 365	 355
 139	 276	 266
 140	 389	 379
 141	 471	 461
 142	 263	 253
 143	 296	 286
 144	 491	 481
 145	 265	 255
 146	 274	 264
 147	 485	 475
 148	 268	 258
 149	 277	 267
 150	 411	 401
 151	 269	 259
 152	 350	 340
 153	 471	 461
 154	 272	 262
 155	 287	 277
 156	 433	 423
 157	 291	 281
 158	 306	 296
 159	 450	 440
 160	 262	 252
 161	 318	 308
 162	 388	 378
 163	 264	 254
 164	 378	 368
 165	 498	 488
 166	 260	 250
 167	 272	 262
 168	 431	 421
 169	 286	 276
 170	 313	 303
 171	 455	 445
 172	 282	 272
 173	 293	 283
 174	 368	 358
 175	 262	 252
 176	 400	 390
 177	 471	 461
 178	 260	 250
 179	 299	 289
 180	 361	 351
 181	 261	 251
 182	 408	 398
 183	 407	 397
 184	 295	 285
 185	 328	 318
 186	 492	 482
 187	 260	 250
 188	 278	 268
 189	 486	 476
 190	 265	 255
 191	 279	 269
 192	 410	 400
 193	 295	 285
 194	 325	 315
 195	 452	 442
 196	 263	 253
 197	 315	 305
 198	 493	 483
 199	 262	 252
 200	 275	 265
 201	 486	 476
 202	 260	 250
 203	 284	 274
 204	 461	 451
 205	 278	 268
 206	 291	 281
 207	 455	 445
 208	 269	 259
 209	 306	 296
 210	 470	 460
 211	 261	 251
 212	 299	 289
 213	 424	 414
 214	 271	 261
 215	 335	 325
 216	 465	 455
 217	 277	 267
 218	 288	 278
 219	 439	 429
 220	 281	 271
 221	 310	 300
 222	 477	 467
 223	 273	 263
 224	 280	 270
 225	 508	 498
 226	 260	 250
 227	 262	 252
 228	 508	 498
 229	 260	 250
 230	 262	 252
 231	 361	 351
 232	 273	 263
 233	 396	 386
 234	 437	 427
 235	 266	 256
 236	 327	 317
 237	 431	 421
 238	 272	 262
 239	 327	 317
 240	 419	 409
 241	 264	 254
 242	 347	 337
 243	 478	 468
 244	 273	 263
 245	 279	 269
 246	 468	 458
 247	 262	 252
 248	 300	 290
;

set E :=
   0	  35
   0	  42
   0	  43
   0	  44
   0	  49
   0	  57
   0	  59
   0	  63
   0	  68
   0	  96
   0	 108
   0	 110
   0	 116
   0	 126
   0	 133
   0	 137
   0	 142
   0	 155
   0	 162
   0	 167
   0	 168
   0	 180
   0	 201
   0	 208
   0	 214
   0	 219
   0	 226
   0	 231
   0	 248
   1	  11
   1	  14
   1	  15
   1	  21
   1	  31
   1	  39
   1	  80
   1	  83
   1	  88
   1	  95
   1	 100
   1	 118
   1	 123
   1	 151
   1	 154
   1	 178
   1	 182
   1	 189
   1	 198
   1	 200
   1	 206
   1	 208
   1	 234
   2	  19
   2	  22
   2	  44
   2	  50
   2	  52
   2	  55
   2	  63
   2	  78
   2	  80
   2	  81
   2	  89
   2	 116
   2	 135
   2	 147
   2	 151
   2	 155
   2	 163
   2	 176
   2	 193
   2	 194
   2	 203
   2	 207
   2	 217
   2	 228
   2	 237
   2	 245
   3	  11
   3	  21
   3	  29
   3	  35
   3	  40
   3	  47
   3	  59
   3	  60
   3	  63
   3	  66
   3	  67
   3	  74
   3	  82
   3	  84
   3	  92
   3	 106
   3	 125
   3	 141
   3	 142
   3	 160
   3	 172
   3	 196
   3	 199
   3	 244
   4	  15
   4	  26
   4	  27
   4	  37
   4	  40
   4	  46
   4	  72
   4	  81
   4	  87
   4	 131
   4	 163
   4	 173
   4	 194
   4	 200
   4	 209
   4	 215
   4	 220
   4	 224
   5	  12
   5	  19
   5	  21
   5	  33
   5	  49
   5	  56
   5	  62
   5	  66
   5	  87
   5	 108
   5	 115
   5	 120
   5	 148
   5	 164
   5	 171
   5	 173
   5	 198
   5	 248
   6	  44
   6	  59
   6	  65
   6	  68
   6	  72
   6	  79
   6	  81
   6	  82
   6	  93
   6	 101
   6	 102
   6	 109
   6	 110
   6	 123
   6	 135
   6	 139
   6	 156
   6	 159
   6	 160
   6	 176
   6	 180
   6	 196
   6	 213
   6	 216
   6	 220
   6	 221
   6	 224
   6	 241
   6	 243
   6	 245
   6	 247
   7	  19
   7	  33
   7	  60
   7	  62
   7	  69
   7	  97
   7	 117
   7	 134
   7	 135
   7	 137
   7	 143
   7	 161
   7	 188
   7	 202
   7	 209
   7	 240
   8	   9
   8	  10
   8	  17
   8	  25
   8	  27
   8	  37
   8	  42
   8	  71
   8	  72
   8	  83
   8	  96
   8	 101
   8	 120
   8	 145
   8	 152
   8	 173
   8	 178
   8	 182
   8	 199
   8	 221
   8	 222
   8	 227
   8	 237
   9	  35
   9	  36
   9	  60
   9	  82
   9	 102
   9	 103
   9	 131
   9	 144
   9	 145
   9	 149
   9	 153
   9	 169
   9	 188
   9	 195
   9	 214
   9	 216
   9	 223
   9	 233
   9	 234
   9	 243
   9	 244
  10	  13
  10	  18
  10	  20
  10	  25
  10	  27
  10	  29
  10	  38
  10	  49
  10	  60
  10	  65
  10	  75
  10	  89
  10	  91
  10	  96
  10	 124
  10	 130
  10	 177
  10	 180
  10	 181
  10	 197
  10	 212
  10	 213
  10	 231
  11	  12
  11	  38
  11	  62
  11	  80
  11	  81
  11	  82
  11	  85
  11	  86
  11	  93
  11	 116
  11	 125
  11	 137
  11	 142
  11	 157
  11	 171
  11	 176
  11	 177
  11	 186
  11	 193
  11	 202
  11	 212
  11	 227
  11	 241
  11	 244
  11	 247
  12	  36
  12	  43
  12	  48
  12	  58
  12	  76
  12	  85
  12	  87
  12	  90
  12	  93
  12	  94
  12	  98
  12	 101
  12	 118
  12	 124
  12	 130
  12	 137
  12	 153
  12	 154
  12	 160
  12	 181
  12	 184
  12	 213
  12	 214
  12	 218
  12	 219
  12	 223
  12	 237
  12	 243
  13	  34
  13	  37
  13	  46
  13	  62
  13	  63
  13	  64
  13	  66
  13	  93
  13	 107
  13	 114
  13	 122
  13	 126
  13	 137
  13	 160
  13	 162
  13	 184
  13	 188
  13	 194
  13	 202
  13	 221
  13	 231
  13	 234
  13	 238
  13	 243
  13	 245
  13	 248
  14	  78
  14	  97
  14	 125
  14	 129
  14	 131
  14	 133
  14	 141
  14	 146
  14	 176
  14	 185
  14	 186
  14	 187
  14	 191
  14	 208
  14	 219
  14	 222
  14	 223
  14	 224
  14	 230
  14	 232
  15	  18
  15	  36
  15	  42
  15	  60
  15	  79
  15	  84
  15	  98
  15	 108
  15	 115
  15	 116
  15	 129
  15	 146
  15	 149
  15	 152
  15	 157
  15	 196
  15	 200
  15	 215
  15	 227
  15	 229
  15	 233
  15	 242
  16	  18
  16	  46
  16	  49
  16	  58
  16	  64
  16	  73
  16	 122
  16	 124
  16	 148
  16	 151
  16	 162
  16	 164
  16	 181
  16	 182
  16	 185
  16	 190
  16	 202
  16	 216
  16	 217
  16	 231
  16	 241
  16	 244
  17	  20
  17	  45
  17	  52
  17	  53
  17	  56
  17	  71
  17	  73
  17	  81
  17	  99
  17	 106
  17	 110
  17	 117
  17	 118
  17	 124
  17	 130
  17	 131
  17	 158
  17	 159
  17	 190
  17	 208
  17	 213
  17	 214
  17	 244
  18	  20
  18	  33
  18	  34
  18	  42
  18	  47
  18	  62
  18	  70
  18	  81
  18	 105
  18	 109
  18	 112
  18	 113
  18	 131
  18	 141
  18	 142
  18	 169
  18	 177
  18	 178
  18	 186
  18	 196
  18	 197
  18	 230
  18	 233
  18	 235
  18	 236
  18	 246
  19	  22
  19	  37
  19	  44
  19	  50
  19	  63
  19	  70
  19	  77
  19	  93
  19	 121
  19	 124
  19	 137
  19	 138
  19	 162
  19	 195
  19	 199
  19	 204
  19	 221
  19	 229
  19	 236
  19	 246
  20	  34
  20	  55
  20	 107
  20	 109
  20	 110
  20	 135
  20	 150
  20	 161
  20	 181
  20	 182
  20	 200
  20	 204
  20	 210
  20	 212
  20	 221
  20	 232
  20	 247
  20	 248
  21	  34
  21	  43
  21	  50
  21	  55
  21	  61
  21	  77
  21	 111
  21	 113
  21	 114
  21	 124
  21	 154
  21	 163
  21	 176
  21	 200
  21	 202
  21	 210
  21	 223
  21	 228
  21	 235
  21	 236
  21	 239
  22	  35
  22	  38
  22	  50
  22	  52
  22	  60
  22	  64
  22	  74
  22	  88
  22	 172
  22	 178
  22	 185
  22	 190
  22	 199
  22	 215
  22	 234
  22	 241
  22	 245
  22	 248
  23	  24
  23	  28
  23	  62
  23	  66
  23	  76
  23	  86
  23	  89
  23	  93
  23	  94
  23	 129
  23	 135
  23	 155
  23	 182
  23	 183
  23	 185
  23	 202
  23	 203
  23	 210
  23	 222
  23	 232
  23	 235
  24	  31
  24	  42
  24	  57
  24	  82
  24	  91
  24	 103
  24	 107
  24	 113
  24	 139
  24	 143
  24	 159
  24	 186
  24	 195
  24	 199
  24	 211
  24	 230
  24	 232
  24	 237
  24	 242
  25	  38
  25	  47
  25	  49
  25	  51
  25	  79
  25	 110
  25	 122
  25	 132
  25	 134
  25	 140
  25	 141
  25	 146
  25	 153
  25	 169
  25	 172
  25	 204
  25	 235
  26	  37
  26	  53
  26	  55
  26	  64
  26	  66
  26	  88
  26	 100
  26	 105
  26	 108
  26	 109
  26	 118
  26	 134
  26	 138
  26	 144
  26	 161
  26	 171
  26	 175
  26	 179
  26	 186
  26	 188
  26	 189
  26	 197
  26	 202
  26	 207
  26	 211
  26	 230
  27	  40
  27	  50
  27	  56
  27	  70
  27	  72
  27	  79
  27	  82
  27	 109
  27	 112
  27	 125
  27	 135
  27	 150
  27	 161
  27	 172
  27	 184
  27	 186
  27	 190
  27	 202
  27	 217
  27	 232
  27	 235
  28	  34
  28	  60
  28	  70
  28	  74
  28	  98
  28	 105
  28	 111
  28	 115
  28	 143
  28	 151
  28	 167
  28	 171
  28	 172
  28	 187
  28	 194
  28	 211
  28	 243
  29	  55
  29	  57
  29	  86
  29	 115
  29	 120
  29	 121
  29	 130
  29	 135
  29	 145
  29	 156
  29	 159
  29	 163
  29	 173
  29	 180
  29	 181
  29	 182
  29	 185
  29	 188
  29	 200
  29	 209
  29	 216
  29	 217
  29	 218
  29	 226
  29	 234
  29	 236
  29	 243
  30	  45
  30	  49
  30	  72
  30	  79
  30	  87
  30	  95
  30	 100
  30	 107
  30	 116
  30	 126
  30	 127
  30	 133
  30	 134
  30	 137
  30	 140
  30	 175
  30	 177
  30	 189
  30	 195
  30	 209
  30	 221
  30	 233
  30	 235
  30	 236
  30	 240
  30	 246
  31	  32
  31	  39
  31	  54
  31	  63
  31	  90
  31	  91
  31	 103
  31	 110
  31	 111
  31	 113
  31	 119
  31	 126
  31	 133
  31	 134
  31	 188
  31	 191
  31	 196
  31	 211
  31	 223
  31	 232
  31	 237
  31	 247
  32	  36
  32	  39
  32	  42
  32	  56
  32	  62
  32	  63
  32	  81
  32	  87
  32	 105
  32	 108
  32	 112
  32	 117
  32	 120
  32	 141
  32	 152
  32	 157
  32	 160
  32	 172
  32	 183
  32	 187
  32	 189
  32	 199
  32	 204
  32	 209
  32	 210
  32	 212
  32	 217
  32	 247
  33	  40
  33	  49
  33	  62
  33	  74
  33	  99
  33	 103
  33	 107
  33	 124
  33	 144
  33	 146
  33	 147
  33	 150
  33	 161
  33	 185
  33	 192
  33	 210
  33	 218
  33	 224
  33	 227
  33	 228
  33	 236
  34	  45
  34	  54
  34	  78
  34	  90
  34	  93
  34	  99
  34	 100
  34	 104
  34	 107
  34	 113
  34	 125
  34	 127
  34	 153
  34	 166
  34	 168
  34	 170
  34	 176
  34	 201
  34	 212
  34	 217
  34	 219
  34	 229
  34	 233
  34	 241
  34	 243
  35	  40
  35	  60
  35	  67
  35	  69
  35	  92
  35	  95
  35	 118
  35	 125
  35	 129
  35	 135
  35	 137
  35	 157
  35	 170
  35	 177
  35	 198
  35	 201
  35	 204
  35	 208
  35	 210
  35	 219
  35	 240
  36	  45
  36	  47
  36	  53
  36	  73
  36	  84
  36	  85
  36	 110
  36	 115
  36	 120
  36	 133
  36	 143
  36	 144
  36	 150
  36	 152
  36	 155
  36	 157
  36	 171
  36	 178
  36	 193
  36	 197
  36	 236
  36	 237
  36	 239
  36	 246
  37	  50
  37	  52
  37	  65
  37	  79
  37	  81
  37	  94
  37	 133
  37	 138
  37	 142
  37	 145
  37	 177
  37	 211
  37	 223
  38	  55
  38	  56
  38	  71
  38	  75
  38	  83
  38	  95
  38	 105
  38	 117
  38	 134
  38	 141
  38	 155
  38	 164
  38	 182
  38	 184
  38	 185
  38	 221
  38	 241
  39	  43
  39	  46
  39	  71
  39	  73
  39	  87
  39	 117
  39	 124
  39	 149
  39	 159
  39	 175
  39	 181
  39	 184
  39	 185
  39	 196
  39	 208
  39	 211
  39	 220
  39	 227
  39	 235
  39	 240
  39	 248
  40	  45
  40	  54
  40	  56
  40	  72
  40	  84
  40	  93
  40	 110
  40	 151
  40	 156
  40	 193
  40	 199
  40	 206
  40	 209
  40	 210
  40	 224
  40	 233
  40	 239
  40	 248
  41	  42
  41	  47
  41	  50
  41	  53
  41	  68
  41	  71
  41	  75
  41	 105
  41	 107
  41	 116
  41	 134
  41	 146
  41	 148
  41	 156
  41	 160
  41	 161
  41	 171
  41	 186
  41	 189
  41	 197
  41	 198
  41	 206
  41	 220
  41	 225
  41	 238
  42	  53
  42	  99
  42	 107
  42	 149
  42	 165
  42	 184
  42	 188
  42	 205
  42	 210
  42	 211
  42	 225
  42	 235
  42	 244
  43	  58
  43	  77
  43	 103
  43	 125
  43	 130
  43	 132
  43	 139
  43	 144
  43	 146
  43	 153
  43	 175
  43	 176
  43	 183
  43	 186
  43	 195
  43	 208
  43	 226
  43	 229
  43	 234
  44	  45
  44	  68
  44	  78
  44	  79
  44	  80
  44	  90
  44	  98
  44	  99
  44	 103
  44	 124
  44	 125
  44	 133
  44	 139
  44	 143
  44	 146
  44	 148
  44	 167
  44	 171
  44	 175
  44	 181
  44	 184
  44	 205
  44	 217
  44	 228
  44	 237
  44	 245
  45	  74
  45	 122
  45	 132
  45	 141
  45	 149
  45	 158
  45	 161
  45	 163
  45	 171
  45	 195
  45	 196
  45	 222
  45	 237
  45	 244
  46	  49
  46	  56
  46	  61
  46	  62
  46	  75
  46	  97
  46	 103
  46	 105
  46	 129
  46	 133
  46	 137
  46	 140
  46	 155
  46	 156
  46	 157
  46	 160
  46	 170
  46	 204
  46	 220
  47	  53
  47	  67
  47	  92
  47	  98
  47	 104
  47	 109
  47	 116
  47	 119
  47	 124
  47	 144
  47	 152
  47	 157
  47	 163
  47	 167
  47	 171
  47	 177
  47	 181
  47	 187
  47	 192
  47	 199
  47	 217
  47	 218
  47	 219
  47	 237
  48	  54
  48	  55
  48	  56
  48	  57
  48	  88
  48	  90
  48	 104
  48	 107
  48	 116
  48	 122
  48	 124
  48	 141
  48	 148
  48	 162
  48	 171
  48	 195
  48	 198
  48	 199
  48	 205
  48	 231
  49	  56
  49	  62
  49	  69
  49	  82
  49	  92
  49	  95
  49	  97
  49	 133
  49	 148
  49	 150
  49	 171
  49	 179
  49	 187
  49	 195
  49	 212
  49	 217
  49	 231
  49	 233
  49	 236
  50	  70
  50	  72
  50	  87
  50	  90
  50	  91
  50	 104
  50	 110
  50	 141
  50	 173
  50	 177
  50	 188
  50	 195
  50	 209
  50	 242
  51	  54
  51	  57
  51	  72
  51	  75
  51	  80
  51	  91
  51	 105
  51	 113
  51	 114
  51	 140
  51	 146
  51	 180
  51	 197
  51	 207
  51	 217
  51	 226
  52	  56
  52	  77
  52	  78
  52	  85
  52	 116
  52	 122
  52	 137
  52	 140
  52	 145
  52	 168
  52	 173
  52	 191
  52	 194
  52	 198
  52	 199
  52	 225
  52	 227
  53	  75
  53	  90
  53	  93
  53	  98
  53	 101
  53	 102
  53	 103
  53	 121
  53	 133
  53	 146
  53	 152
  53	 155
  53	 162
  53	 189
  53	 193
  53	 195
  53	 206
  53	 212
  53	 216
  53	 219
  53	 235
  53	 241
  54	  57
  54	  68
  54	  72
  54	  73
  54	  78
  54	  87
  54	  90
  54	 109
  54	 117
  54	 120
  54	 146
  54	 149
  54	 157
  54	 178
  54	 185
  54	 220
  54	 224
  54	 227
  54	 229
  55	  63
  55	  80
  55	  90
  55	 103
  55	 105
  55	 115
  55	 123
  55	 186
  55	 194
  55	 198
  55	 209
  55	 220
  55	 230
  55	 232
  55	 237
  55	 242
  56	  63
  56	  71
  56	  91
  56	  93
  56	 113
  56	 127
  56	 134
  56	 137
  56	 143
  56	 146
  56	 151
  56	 159
  56	 170
  56	 172
  56	 181
  56	 186
  56	 206
  56	 214
  56	 236
  56	 245
  57	  61
  57	  64
  57	  74
  57	  80
  57	  83
  57	  96
  57	 110
  57	 117
  57	 123
  57	 127
  57	 129
  57	 131
  57	 147
  57	 170
  57	 178
  57	 191
  57	 212
  57	 215
  57	 240
  57	 245
  58	  61
  58	  73
  58	  80
  58	  81
  58	  85
  58	  86
  58	  90
  58	  91
  58	  93
  58	 112
  58	 135
  58	 138
  58	 146
  58	 176
  58	 182
  58	 197
  58	 203
  58	 218
  58	 237
  58	 243
  58	 244
  59	  62
  59	  77
  59	  97
  59	 115
  59	 118
  59	 132
  59	 138
  59	 143
  59	 159
  59	 169
  59	 174
  59	 177
  59	 182
  59	 194
  59	 198
  59	 200
  59	 201
  59	 203
  59	 207
  59	 218
  59	 231
  59	 232
  59	 234
  59	 242
  60	  72
  60	  74
  60	  96
  60	 108
  60	 111
  60	 128
  60	 136
  60	 138
  60	 144
  60	 153
  60	 157
  60	 169
  60	 195
  60	 206
  60	 207
  60	 236
  60	 238
  60	 239
  60	 244
  61	  68
  61	  86
  61	 100
  61	 116
  61	 123
  61	 144
  61	 173
  61	 199
  61	 205
  61	 231
  61	 243
  61	 248
  62	  67
  62	  68
  62	  72
  62	  75
  62	  78
  62	  85
  62	  89
  62	 104
  62	 105
  62	 124
  62	 132
  62	 135
  62	 140
  62	 145
  62	 146
  62	 147
  62	 149
  62	 152
  62	 212
  62	 215
  62	 218
  62	 227
  62	 230
  62	 235
  63	  70
  63	  78
  63	 105
  63	 111
  63	 115
  63	 123
  63	 157
  63	 168
  63	 183
  63	 185
  63	 220
  63	 227
  63	 248
  64	  76
  64	  82
  64	  86
  64	 100
  64	 117
  64	 126
  64	 127
  64	 130
  64	 132
  64	 141
  64	 151
  64	 157
  64	 180
  64	 188
  64	 197
  64	 199
  64	 221
  64	 222
  64	 228
  64	 231
  64	 233
  64	 242
  65	  67
  65	  75
  65	  93
  65	  99
  65	 103
  65	 118
  65	 122
  65	 124
  65	 138
  65	 145
  65	 164
  65	 165
  65	 173
  65	 201
  65	 202
  65	 207
  65	 215
  65	 220
  65	 222
  66	  70
  66	  72
  66	  89
  66	  98
  66	 103
  66	 115
  66	 119
  66	 123
  66	 129
  66	 136
  66	 138
  66	 141
  66	 148
  66	 165
  66	 172
  66	 187
  66	 201
  66	 205
  66	 208
  66	 216
  66	 221
  66	 224
  66	 241
  66	 245
  66	 246
  67	  78
  67	  84
  67	 101
  67	 103
  67	 142
  67	 155
  67	 167
  67	 168
  67	 208
  67	 209
  67	 212
  67	 215
  67	 238
  68	  81
  68	  82
  68	  91
  68	  93
  68	 128
  68	 132
  68	 136
  68	 139
  68	 145
  68	 185
  68	 189
  68	 202
  68	 210
  68	 223
  68	 231
  69	  76
  69	 100
  69	 124
  69	 139
  69	 173
  69	 192
  69	 200
  69	 203
  69	 214
  69	 247
  70	  82
  70	  92
  70	 112
  70	 120
  70	 143
  70	 149
  70	 165
  70	 182
  70	 189
  70	 196
  70	 197
  70	 204
  70	 205
  70	 222
  70	 231
  70	 236
  71	  74
  71	  92
  71	 113
  71	 127
  71	 130
  71	 131
  71	 162
  71	 184
  71	 191
  71	 210
  71	 222
  71	 230
  71	 232
  71	 240
  72	  73
  72	  97
  72	  98
  72	 110
  72	 122
  72	 130
  72	 134
  72	 151
  72	 154
  72	 161
  72	 177
  72	 178
  72	 222
  72	 226
  72	 242
  72	 248
  73	  75
  73	 114
  73	 128
  73	 133
  73	 134
  73	 157
  73	 162
  73	 164
  73	 167
  73	 170
  73	 186
  73	 193
  73	 201
  73	 214
  73	 226
  73	 235
  73	 236
  73	 239
  73	 246
  74	  90
  74	  94
  74	 100
  74	 110
  74	 116
  74	 128
  74	 149
  74	 158
  74	 165
  74	 170
  74	 172
  74	 186
  74	 187
  74	 216
  74	 223
  74	 225
  74	 234
  74	 243
  75	  90
  75	 103
  75	 116
  75	 127
  75	 151
  75	 152
  75	 155
  75	 186
  75	 211
  75	 217
  75	 220
  75	 242
  75	 243
  75	 245
  76	  77
  76	  79
  76	  98
  76	 100
  76	 101
  76	 104
  76	 129
  76	 170
  76	 183
  76	 185
  76	 186
  76	 193
  76	 201
  76	 221
  76	 222
  76	 230
  76	 232
  77	  87
  77	  91
  77	 120
  77	 126
  77	 129
  77	 139
  77	 140
  77	 158
  77	 166
  77	 167
  77	 176
  77	 185
  77	 197
  77	 211
  77	 213
  77	 238
  78	  88
  78	  97
  78	  99
  78	 114
  78	 118
  78	 120
  78	 121
  78	 124
  78	 139
  78	 144
  78	 156
  78	 186
  78	 197
  78	 201
  78	 204
  78	 231
  78	 237
  78	 243
  78	 248
  79	  84
  79	  86
  79	  90
  79	  97
  79	 108
  79	 110
  79	 118
  79	 127
  79	 134
  79	 148
  79	 170
  79	 182
  79	 192
  79	 204
  79	 212
  79	 219
  79	 235
  80	  84
  80	  87
  80	 126
  80	 128
  80	 134
  80	 135
  80	 142
  80	 150
  80	 158
  80	 164
  80	 171
  80	 181
  80	 189
  80	 190
  80	 209
  80	 241
  81	  88
  81	 104
  81	 111
  81	 113
  81	 141
  81	 154
  81	 180
  81	 195
  81	 200
  81	 205
  81	 227
  82	  84
  82	  85
  82	  89
  82	 106
  82	 112
  82	 113
  82	 114
  82	 119
  82	 122
  82	 126
  82	 152
  82	 155
  82	 175
  82	 191
  82	 200
  82	 221
  82	 242
  83	  87
  83	  89
  83	  93
  83	  94
  83	  97
  83	 125
  83	 131
  83	 150
  83	 152
  83	 155
  83	 208
  83	 211
  83	 228
  83	 232
  83	 236
  84	  86
  84	  92
  84	 101
  84	 103
  84	 124
  84	 126
  84	 131
  84	 141
  84	 150
  84	 164
  84	 190
  84	 193
  84	 199
  84	 206
  84	 220
  85	  95
  85	 103
  85	 108
  85	 123
  85	 126
  85	 138
  85	 154
  85	 157
  85	 158
  85	 180
  85	 200
  85	 207
  85	 209
  85	 213
  85	 221
  86	 116
  86	 119
  86	 126
  86	 143
  86	 145
  86	 149
  86	 155
  86	 163
  86	 164
  86	 192
  86	 197
  86	 199
  86	 207
  86	 244
  87	  98
  87	 100
  87	 103
  87	 115
  87	 126
  87	 127
  87	 129
  87	 134
  87	 139
  87	 141
  87	 158
  87	 165
  87	 168
  87	 175
  87	 176
  87	 183
  87	 189
  87	 191
  87	 197
  87	 204
  87	 211
  87	 227
  87	 234
  87	 238
  87	 245
  87	 247
  88	  92
  88	 103
  88	 115
  88	 132
  88	 144
  88	 147
  88	 156
  88	 159
  88	 160
  88	 173
  88	 202
  88	 204
  88	 208
  88	 209
  89	  95
  89	 120
  89	 123
  89	 131
  89	 152
  89	 170
  89	 172
  89	 180
  89	 196
  89	 199
  89	 206
  89	 211
  89	 213
  89	 216
  89	 217
  89	 219
  89	 220
  89	 234
  89	 237
  89	 240
  90	  94
  90	 100
  90	 105
  90	 127
  90	 133
  90	 137
  90	 138
  90	 146
  90	 150
  90	 153
  90	 155
  90	 171
  90	 172
  90	 173
  90	 186
  90	 209
  90	 211
  90	 245
  91	  94
  91	 101
  91	 103
  91	 108
  91	 112
  91	 119
  91	 121
  91	 126
  91	 135
  91	 147
  91	 154
  91	 156
  91	 161
  91	 167
  91	 168
  91	 185
  91	 194
  91	 197
  91	 213
  91	 220
  91	 221
  91	 224
  92	  96
  92	 116
  92	 127
  92	 135
  92	 143
  92	 150
  92	 158
  92	 159
  92	 171
  92	 182
  92	 186
  92	 211
  92	 222
  92	 228
  92	 239
  93	  94
  93	 125
  93	 129
  93	 130
  93	 148
  93	 157
  93	 169
  93	 175
  93	 184
  93	 186
  93	 190
  93	 193
  93	 194
  93	 211
  93	 214
  93	 216
  93	 220
  93	 226
  93	 238
  93	 240
  93	 243
  93	 246
  94	  96
  94	 112
  94	 121
  94	 128
  94	 145
  94	 157
  94	 160
  94	 163
  94	 171
  94	 178
  94	 199
  94	 200
  94	 203
  94	 237
  94	 240
  95	  98
  95	 103
  95	 110
  95	 111
  95	 129
  95	 131
  95	 133
  95	 143
  95	 152
  95	 159
  95	 160
  95	 168
  95	 173
  95	 178
  95	 180
  95	 191
  95	 200
  95	 207
  95	 215
  95	 222
  95	 227
  95	 228
  95	 235
  95	 246
  96	  97
  96	 100
  96	 101
  96	 136
  96	 137
  96	 143
  96	 149
  96	 155
  96	 157
  96	 175
  96	 180
  96	 184
  96	 192
  96	 202
  96	 208
  96	 214
  96	 222
  96	 233
  96	 239
  96	 242
  96	 246
  96	 247
  97	 130
  97	 135
  97	 139
  97	 141
  97	 145
  97	 154
  97	 159
  97	 170
  97	 173
  97	 177
  97	 179
  97	 181
  97	 194
  97	 195
  97	 203
  97	 205
  97	 207
  97	 224
  97	 226
  97	 234
  97	 243
  98	 101
  98	 120
  98	 125
  98	 129
  98	 144
  98	 160
  98	 162
  98	 185
  98	 195
  98	 198
  98	 209
  98	 214
  98	 218
  98	 223
  98	 244
  99	 101
  99	 106
  99	 116
  99	 123
  99	 125
  99	 128
  99	 137
  99	 149
  99	 151
  99	 155
  99	 173
  99	 174
  99	 184
  99	 205
  99	 213
  99	 214
  99	 220
  99	 242
  99	 243
 100	 101
 100	 104
 100	 120
 100	 138
 100	 139
 100	 143
 100	 152
 100	 154
 100	 161
 100	 168
 100	 189
 100	 200
 100	 204
 100	 210
 100	 215
 100	 242
 101	 107
 101	 108
 101	 119
 101	 122
 101	 126
 101	 133
 101	 137
 101	 161
 101	 174
 101	 179
 101	 202
 101	 212
 101	 224
 101	 227
 101	 235
 101	 243
 102	 111
 102	 112
 102	 116
 102	 125
 102	 138
 102	 139
 102	 145
 102	 161
 102	 169
 102	 177
 102	 178
 102	 205
 102	 219
 102	 237
 102	 246
 103	 114
 103	 115
 103	 116
 103	 117
 103	 127
 103	 136
 103	 143
 103	 148
 103	 156
 103	 186
 103	 196
 103	 205
 103	 218
 103	 219
 103	 220
 103	 248
 104	 106
 104	 135
 104	 136
 104	 164
 104	 175
 104	 197
 104	 201
 104	 204
 104	 205
 104	 213
 104	 217
 104	 222
 104	 223
 104	 237
 104	 238
 104	 243
 104	 248
 105	 109
 105	 124
 105	 141
 105	 151
 105	 159
 105	 198
 105	 206
 105	 213
 105	 223
 105	 225
 105	 240
 105	 245
 105	 247
 106	 109
 106	 129
 106	 147
 106	 170
 106	 198
 106	 227
 107	 108
 107	 110
 107	 116
 107	 133
 107	 134
 107	 135
 107	 147
 107	 154
 107	 156
 107	 157
 107	 169
 107	 179
 107	 181
 107	 183
 107	 200
 107	 213
 107	 218
 107	 219
 107	 221
 107	 233
 107	 247
 108	 116
 108	 119
 108	 137
 108	 139
 108	 140
 108	 143
 108	 144
 108	 148
 108	 159
 108	 161
 108	 187
 108	 189
 108	 194
 108	 204
 108	 207
 108	 228
 108	 237
 109	 139
 109	 140
 109	 149
 109	 151
 109	 156
 109	 158
 109	 167
 109	 178
 109	 183
 109	 197
 109	 229
 109	 235
 110	 115
 110	 136
 110	 142
 110	 145
 110	 152
 110	 156
 110	 164
 110	 165
 110	 168
 110	 181
 110	 184
 110	 186
 110	 189
 110	 218
 110	 233
 110	 238
 111	 113
 111	 120
 111	 125
 111	 127
 111	 133
 111	 140
 111	 145
 111	 166
 111	 168
 111	 169
 111	 182
 111	 187
 111	 191
 111	 201
 111	 203
 111	 214
 111	 216
 111	 223
 111	 224
 111	 231
 111	 245
 112	 115
 112	 126
 112	 139
 112	 141
 112	 152
 112	 170
 112	 180
 112	 201
 112	 212
 112	 214
 112	 239
 113	 177
 113	 183
 113	 184
 113	 203
 113	 211
 113	 215
 113	 225
 113	 233
 114	 119
 114	 122
 114	 124
 114	 125
 114	 137
 114	 147
 114	 151
 114	 161
 114	 164
 114	 176
 114	 180
 114	 188
 114	 202
 114	 217
 114	 232
 115	 127
 115	 136
 115	 153
 115	 157
 115	 169
 115	 171
 115	 176
 115	 181
 115	 183
 115	 190
 115	 194
 115	 208
 115	 214
 115	 227
 116	 131
 116	 139
 116	 153
 116	 155
 116	 160
 116	 161
 116	 165
 116	 175
 116	 178
 116	 187
 116	 220
 116	 248
 117	 127
 117	 139
 117	 178
 117	 179
 117	 181
 117	 188
 117	 190
 117	 192
 117	 200
 117	 203
 117	 213
 117	 216
 117	 226
 117	 227
 117	 236
 117	 241
 118	 127
 118	 131
 118	 150
 118	 154
 118	 162
 118	 174
 118	 177
 118	 187
 118	 193
 118	 201
 118	 223
 118	 242
 118	 243
 119	 121
 119	 124
 119	 148
 119	 156
 119	 178
 119	 192
 119	 212
 119	 213
 119	 220
 119	 231
 119	 243
 120	 123
 120	 138
 120	 140
 120	 160
 120	 169
 120	 172
 120	 173
 120	 179
 120	 184
 120	 197
 120	 203
 120	 205
 120	 229
 120	 244
 121	 138
 121	 141
 121	 146
 121	 153
 121	 195
 121	 198
 121	 199
 121	 218
 121	 232
 122	 123
 122	 127
 122	 128
 122	 130
 122	 131
 122	 134
 122	 140
 122	 145
 122	 146
 122	 164
 122	 165
 122	 171
 122	 179
 122	 191
 122	 195
 122	 213
 122	 228
 123	 124
 123	 125
 123	 134
 123	 155
 123	 163
 123	 168
 123	 174
 123	 200
 123	 208
 123	 216
 123	 243
 124	 141
 124	 154
 124	 169
 124	 177
 124	 186
 124	 188
 124	 198
 124	 206
 124	 210
 124	 219
 124	 229
 125	 131
 125	 137
 125	 159
 125	 162
 125	 165
 125	 179
 125	 194
 125	 198
 125	 199
 125	 202
 125	 205
 125	 214
 125	 221
 125	 223
 125	 237
 125	 244
 126	 128
 126	 136
 126	 146
 126	 152
 126	 163
 126	 166
 126	 172
 126	 173
 126	 186
 126	 189
 126	 237
 126	 246
 127	 133
 127	 138
 127	 143
 127	 158
 127	 165
 127	 168
 127	 186
 127	 211
 127	 223
 127	 230
 127	 234
 128	 148
 128	 156
 128	 168
 128	 173
 128	 193
 128	 210
 128	 211
 128	 239
 128	 241
 128	 245
 129	 130
 129	 132
 129	 157
 129	 177
 129	 193
 129	 201
 129	 202
 129	 203
 129	 216
 129	 221
 129	 237
 129	 242
 129	 247
 130	 145
 130	 152
 130	 153
 130	 155
 130	 158
 130	 159
 130	 170
 130	 171
 130	 183
 130	 184
 130	 191
 130	 194
 130	 200
 130	 233
 131	 138
 131	 145
 131	 165
 131	 179
 131	 180
 131	 184
 131	 187
 131	 188
 131	 192
 131	 196
 131	 214
 131	 223
 132	 145
 132	 149
 132	 150
 132	 157
 132	 179
 132	 182
 132	 184
 132	 195
 132	 203
 132	 222
 132	 231
 132	 239
 133	 158
 133	 163
 133	 164
 133	 166
 133	 192
 133	 210
 133	 218
 134	 143
 134	 161
 134	 166
 134	 181
 134	 211
 134	 219
 134	 226
 134	 236
 135	 137
 135	 150
 135	 157
 135	 158
 135	 166
 135	 176
 135	 237
 136	 147
 136	 148
 136	 157
 136	 164
 136	 168
 136	 187
 136	 195
 136	 196
 136	 213
 136	 220
 136	 223
 136	 225
 136	 232
 137	 149
 137	 150
 137	 152
 137	 175
 137	 180
 137	 186
 137	 204
 137	 220
 137	 221
 137	 232
 137	 234
 137	 247
 138	 159
 138	 165
 138	 176
 138	 221
 138	 222
 138	 223
 138	 234
 139	 162
 139	 168
 139	 188
 139	 212
 139	 217
 139	 234
 139	 240
 139	 245
 140	 151
 140	 153
 140	 170
 140	 172
 140	 175
 140	 187
 140	 200
 140	 213
 140	 219
 140	 236
 140	 242
 140	 248
 141	 152
 141	 153
 141	 156
 141	 162
 141	 164
 141	 176
 141	 181
 141	 182
 141	 183
 141	 188
 141	 199
 141	 206
 141	 213
 141	 215
 141	 235
 141	 239
 142	 145
 142	 151
 142	 184
 142	 187
 142	 190
 142	 215
 142	 220
 142	 222
 142	 223
 142	 224
 142	 232
 142	 238
 143	 151
 143	 154
 143	 160
 143	 174
 143	 192
 143	 212
 143	 217
 143	 231
 143	 233
 143	 240
 144	 146
 144	 159
 144	 167
 144	 172
 144	 179
 144	 197
 144	 203
 144	 206
 144	 227
 144	 234
 144	 235
 144	 236
 145	 147
 145	 163
 145	 181
 145	 184
 145	 190
 145	 206
 145	 210
 145	 221
 145	 245
 146	 149
 146	 177
 146	 184
 146	 186
 146	 198
 146	 204
 146	 208
 146	 209
 146	 227
 146	 228
 146	 230
 146	 240
 146	 247
 147	 170
 147	 177
 147	 180
 147	 183
 147	 201
 147	 203
 147	 218
 147	 221
 147	 238
 147	 240
 148	 159
 148	 163
 148	 171
 148	 174
 148	 175
 148	 181
 148	 184
 148	 189
 148	 191
 148	 197
 148	 218
 148	 221
 148	 222
 148	 223
 149	 153
 149	 155
 149	 161
 149	 166
 149	 172
 149	 186
 149	 198
 149	 200
 149	 206
 149	 210
 149	 212
 150	 153
 150	 155
 150	 158
 150	 159
 150	 162
 150	 164
 150	 172
 150	 176
 150	 194
 150	 197
 150	 202
 150	 203
 150	 206
 150	 211
 150	 219
 150	 227
 150	 229
 150	 230
 150	 239
 151	 156
 151	 160
 151	 181
 151	 185
 151	 196
 151	 199
 151	 200
 151	 202
 151	 227
 151	 233
 151	 239
 151	 240
 152	 156
 152	 160
 152	 179
 152	 191
 152	 194
 152	 200
 152	 210
 152	 220
 152	 225
 152	 235
 153	 162
 153	 178
 153	 190
 153	 199
 153	 218
 153	 237
 154	 170
 154	 174
 154	 178
 154	 179
 154	 180
 154	 191
 154	 195
 154	 201
 154	 202
 154	 205
 154	 210
 154	 223
 154	 226
 154	 227
 154	 230
 154	 231
 154	 247
 155	 160
 155	 162
 155	 168
 155	 175
 155	 207
 155	 212
 155	 216
 155	 225
 156	 158
 156	 160
 156	 165
 156	 172
 156	 173
 156	 188
 156	 222
 157	 159
 157	 161
 157	 162
 157	 169
 157	 201
 157	 212
 157	 224
 157	 247
 158	 160
 158	 163
 158	 184
 158	 199
 158	 202
 158	 204
 158	 213
 158	 217
 158	 232
 158	 236
 158	 237
 159	 167
 159	 170
 159	 178
 159	 188
 159	 203
 159	 225
 159	 236
 159	 238
 159	 240
 160	 166
 160	 172
 160	 175
 160	 188
 160	 196
 160	 223
 161	 173
 161	 177
 161	 197
 161	 222
 161	 245
 162	 165
 162	 173
 162	 215
 162	 240
 162	 248
 163	 164
 163	 185
 163	 195
 163	 210
 163	 221
 163	 222
 163	 247
 164	 169
 164	 183
 164	 194
 165	 167
 165	 176
 165	 185
 165	 191
 165	 198
 165	 200
 165	 201
 165	 241
 165	 243
 166	 169
 166	 172
 166	 180
 166	 182
 166	 199
 166	 208
 166	 212
 166	 215
 166	 217
 166	 234
 166	 238
 167	 188
 167	 192
 167	 195
 167	 196
 167	 207
 167	 216
 167	 222
 167	 226
 167	 230
 167	 233
 168	 177
 168	 193
 168	 205
 168	 211
 168	 223
 168	 229
 168	 235
 168	 237
 168	 239
 168	 241
 169	 173
 169	 191
 169	 193
 169	 203
 169	 221
 169	 225
 169	 239
 170	 194
 170	 197
 170	 208
 170	 212
 170	 220
 170	 224
 170	 228
 170	 229
 170	 233
 170	 245
 171	 175
 171	 197
 171	 226
 171	 233
 171	 237
 172	 205
 172	 207
 172	 216
 172	 222
 172	 223
 172	 227
 172	 233
 172	 235
 173	 177
 173	 182
 173	 188
 173	 192
 173	 193
 173	 205
 173	 225
 173	 227
 173	 242
 173	 243
 174	 183
 174	 188
 174	 189
 174	 190
 174	 198
 174	 211
 174	 229
 175	 189
 175	 197
 175	 235
 175	 240
 175	 245
 176	 180
 176	 186
 176	 202
 176	 206
 176	 213
 176	 237
 176	 239
 176	 240
 176	 243
 177	 205
 177	 216
 177	 220
 177	 224
 177	 244
 178	 179
 178	 214
 178	 217
 178	 222
 178	 223
 178	 235
 178	 240
 179	 180
 179	 186
 179	 194
 179	 210
 179	 213
 179	 222
 179	 225
 179	 245
 180	 195
 180	 205
 180	 213
 180	 220
 180	 223
 180	 237
 180	 240
 180	 241
 181	 198
 181	 203
 181	 205
 181	 209
 181	 210
 181	 217
 181	 221
 181	 222
 181	 234
 181	 237
 182	 196
 182	 199
 182	 201
 182	 217
 182	 220
 182	 226
 183	 186
 183	 187
 183	 188
 183	 197
 183	 210
 183	 224
 183	 225
 183	 230
 183	 243
 183	 246
 184	 190
 184	 194
 184	 200
 184	 204
 184	 208
 184	 214
 184	 216
 184	 222
 184	 225
 184	 237
 184	 240
 184	 244
 185	 198
 185	 243
 186	 201
 186	 213
 186	 218
 186	 227
 187	 191
 187	 202
 187	 215
 187	 228
 187	 232
 187	 241
 187	 242
 187	 247
 187	 248
 188	 193
 188	 198
 188	 200
 188	 232
 188	 233
 188	 245
 189	 194
 189	 208
 189	 218
 189	 226
 189	 234
 189	 235
 189	 236
 189	 239
 190	 192
 190	 193
 190	 196
 190	 199
 190	 216
 190	 220
 190	 230
 190	 233
 190	 238
 191	 199
 191	 218
 191	 228
 191	 229
 191	 232
 191	 235
 191	 236
 191	 248
 192	 209
 192	 211
 192	 213
 192	 224
 192	 234
 192	 238
 193	 201
 193	 212
 193	 228
 193	 230
 194	 195
 194	 198
 194	 204
 194	 214
 194	 216
 194	 221
 194	 238
 195	 197
 195	 199
 195	 207
 195	 212
 195	 217
 195	 234
 195	 237
 196	 197
 196	 210
 196	 212
 196	 216
 196	 217
 196	 231
 196	 236
 196	 237
 196	 243
 197	 208
 197	 214
 197	 217
 197	 240
 198	 200
 198	 216
 198	 222
 198	 243
 198	 245
 199	 227
 199	 228
 199	 232
 200	 202
 200	 210
 200	 223
 200	 224
 200	 230
 200	 232
 200	 235
 200	 238
 200	 246
 201	 209
 201	 236
 202	 215
 202	 221
 202	 227
 202	 239
 202	 240
 203	 205
 203	 235
 203	 236
 204	 205
 204	 213
 204	 224
 204	 226
 204	 233
 204	 235
 204	 238
 204	 239
 205	 223
 205	 231
 205	 241
 206	 214
 206	 216
 206	 225
 206	 228
 206	 244
 207	 209
 207	 210
 207	 229
 207	 244
 208	 229
 208	 237
 209	 214
 209	 218
 209	 225
 209	 232
 209	 244
 210	 215
 210	 218
 210	 223
 210	 231
 210	 243
 211	 229
 211	 238
 212	 220
 212	 222
 212	 226
 212	 238
 213	 218
 213	 224
 213	 239
 213	 248
 214	 215
 214	 220
 214	 221
 214	 234
 215	 227
 217	 233
 218	 223
 218	 227
 218	 239
 218	 245
 219	 241
 220	 228
 221	 236
 221	 238
 221	 239
 222	 237
 222	 245
 222	 247
 223	 225
 223	 229
 223	 232
 223	 235
 223	 238
 223	 239
 223	 248
 224	 232
 224	 234
 224	 236
 224	 245
 225	 226
 225	 227
 225	 228
 225	 241
 226	 244
 227	 236
 227	 238
 229	 242
 229	 247
 230	 240
 231	 245
 231	 248
 232	 236
 232	 239
 232	 241
 232	 242
 233	 247
 234	 236
 234	 247
 239	 243
 241	 247
 243	 246
 245	 248
;
